% File represents an instance of a Composite Structure problem to be solved by a CP framework
% Created on 2025-03-25 14:06:10.296
T = 58;
n = 4;
m = 4;
edges = [(1, 2),
(3, 4),
(3, 1),
(4, 2)];
counts = [|8, 16, 2, 22,
|4, 16, 2, 16,
|12, 16, 4, 26,
|12, 16, 4, 16|];
